n = 10; 

m=14; 

 
 
94	43	6	47	45	51	73	49	31	58
3	18	43	41	83	62	27	75	52	58
39	23	28	31	86	19	85	90	77	4
1	92	83	43	3	3	51	5	38	37
63	96	50	12	15	11	33	7	4	58
86	36	19	71	8	77	8	6	40	39
44	44	25	85	86	73	58	95	13	50
53	28	88	10	32	38	25	24	90	7
67	91	88	23	91	71	3	26	41	96
63	29	11	6	31	63	36	39	57	47
87	16	2	18	75	39	77	69	15	78
37	91	42	47	94	14	94	34	72	36
69	3	38	25	87	7	66	54	86	49
44	44	25	85	86	73	58	95	13	50
 
 
 
 


			
		
